
;this file is automatically generated: Mon Feb 10 17:02:04 CST 2020

;declarations generated

(declare-fun type_4c18dad9_e56f_4a78_8726_890e000b2048_Class18 ( Int) Bool)
(declare-fun oclExcludes ( Int Int) Bool)
(declare-fun Cardinality ( Int) Int)
(declare-fun obj_ed4c48ec_77e9_470a_bc48_c89bae108661 ( Int) Int)
(declare-fun oclSelect ( Int Bool) Int)
(declare-fun Enum0 ( Int) Int)
(declare-fun Enum1 ( Int) Int)
(declare-fun container_ ( Int) Int)
(declare-fun oclIncludes ( Int Int) Bool)
(declare-fun ObjAt ( Int Int) Int)

;formula(s) generated
(assert (forall ((p Int)) (=> ( type_4c18dad9_e56f_4a78_8726_890e000b2048_Class18 p )  (and (>= ( Enum0 ( obj_ed4c48ec_77e9_470a_bc48_c89bae108661 p )  )  0) (<= ( Enum0 ( obj_ed4c48ec_77e9_470a_bc48_c89bae108661 p )  )  3)))))
(assert (! (forall ((v Int)) (=> ( type_4c18dad9_e56f_4a78_8726_890e000b2048_Class18 v )  (not (= ( Enum0 ( obj_ed4c48ec_77e9_470a_bc48_c89bae108661 v )  )  3) ))):named l0))
(assert (exists ((o Int)) ( type_4c18dad9_e56f_4a78_8726_890e000b2048_Class18 ( obj_ed4c48ec_77e9_470a_bc48_c89bae108661 o )  ) ))

 ;end of formula 